(set-info :source |printed by MathSAT|)
(declare-fun A_5 () Int)
(declare-fun .y.18 () Int)
(declare-fun B_4 () (Array Int Int))
(declare-fun .y.19 () (Array Int Int))
(declare-fun C_4 () Int)
(declare-fun .y.20 () Int)
(declare-fun D_4 () (Array Int Int))
(declare-fun .y.21 () (Array Int Int))
(declare-fun N_4 () Int)
(declare-fun .y.22 () Int)
(declare-fun E_4 () Int)
(declare-fun .y.23 () Int)
(declare-fun F_4 () Int)
(declare-fun .y.24 () Int)
(declare-fun G_4 () Int)
(declare-fun .y.25 () Int)
(declare-fun J_4 () Int)
(declare-fun .y.26 () Int)
(declare-fun .y.14 () Int)
(declare-fun .y.27 () Int)
(declare-fun .loc.15 () Bool)
(declare-fun .loc.28 () Bool)
(declare-fun .loc.16 () Bool)
(declare-fun .loc.29 () Bool)
(declare-fun .loc.17 () Bool)
(declare-fun .loc.30 () Bool)
(declare-fun E1 () Int)
(declare-fun I1 () Int)
(declare-fun I1_1 () Int)
(declare-fun V () (Array Int Int))
(declare-fun B1_1 () Int)
(declare-fun A1_1 () Int)
(declare-fun X_1 () Int)
(declare-fun B () (Array Int Int))
(define-fun .def_8 () Int (! A_5 :next |.y.18|))
(define-fun .def_10 () (Array Int Int) (! B_4 :next |.y.19|))
(define-fun .def_12 () Int (! C_4 :next |.y.20|))
(define-fun .def_14 () (Array Int Int) (! D_4 :next |.y.21|))
(define-fun .def_16 () Int (! N_4 :next |.y.22|))
(define-fun .def_18 () Int (! E_4 :next |.y.23|))
(define-fun .def_20 () Int (! F_4 :next |.y.24|))
(define-fun .def_22 () Int (! G_4 :next |.y.25|))
(define-fun .def_24 () Int (! J_4 :next |.y.26|))
(define-fun .def_26 () Int (! .y.14 :next |.y.27|))
(define-fun .def_28 () Bool (! .loc.15 :next |.loc.28|))
(define-fun .def_30 () Bool (! .loc.16 :next |.loc.29|))
(define-fun .def_32 () Bool (! .loc.17 :next |.loc.30|))
(define-fun .def_62 () Int (! E1 :next |.xtv.1|))
(define-fun .def_135 () Int (! I1 :next |.xtv.2|))
(define-fun .def_140 () Int (! I1_1 :next |.xtv.3|))
(define-fun .def_142 () (Array Int Int) (! V :next |.xtv.4|))
(define-fun .def_151 () Int (! B1_1 :next |.xtv.5|))
(define-fun .def_153 () Int (! A1_1 :next |.xtv.6|))
(define-fun .def_155 () Int (! X_1 :next |.xtv.7|))
(define-fun .def_157 () (Array Int Int) (! B :next |.xtv.8|))
(define-fun .def_83 () Bool (not .def_28))
(define-fun .def_39 () Bool (not .def_30))
(define-fun .def_367 () Bool (and .def_39 .def_83))
(define-fun .def_365 () Bool (not .def_32))
(define-fun .def_368 () Bool (! (and .def_365 .def_367) :init true))
(define-fun .def_359 () Bool (not .loc.28))
(define-fun .def_349 () Bool (<= .def_24 0))
(define-fun .def_350 () Bool (not .def_349))
(define-fun .def_237 () Bool (<= .def_16 0))
(define-fun .def_238 () Bool (not .def_237))
(define-fun .def_351 () Bool (and .def_238 .def_350))
(define-fun .def_352 () Bool (not .def_351))
(define-fun .def_210 () Int (* (- 1) .def_155))
(define-fun .def_278 () Int (+ .def_24 .def_210))
(define-fun .def_347 () Bool (= .def_278 1))
(define-fun .def_345 () Bool (<= .def_16 .def_24))
(define-fun .def_338 () Bool (<= 0 .def_155))
(define-fun .def_339 () Bool (not .def_338))
(define-fun .def_340 () Int (ite .def_339 1 0))
(define-fun .def_341 () Bool (= .def_340 0))
(define-fun .def_342 () Bool (not .def_341))
(define-fun .def_321 () Bool (= .def_151 0))
(define-fun .def_343 () Bool (or .def_321 .def_342))
(define-fun .def_333 () Bool (= .def_153 0))
(define-fun .def_334 () Bool (not .def_333))
(define-fun .def_335 () Bool (or .def_321 .def_334))
(define-fun .def_236 () Bool (= .def_22 0))
(define-fun .def_336 () Bool (and .def_236 .def_335))
(define-fun .def_322 () Bool (not .def_321))
(define-fun .def_337 () Bool (and .def_322 .def_336))
(define-fun .def_344 () Bool (and .def_337 .def_343))
(define-fun .def_346 () Bool (and .def_344 .def_345))
(define-fun .def_348 () Bool (and .def_346 .def_347))
(define-fun .def_353 () Bool (and .def_348 .def_352))
(define-fun .def_354 () Bool (and .def_83 .def_353))
(define-fun .def_67 () Int (* (- 1) .def_22))
(define-fun .def_170 () Bool (= .def_16 .def_18))
(define-fun .def_175 () Int (ite .def_170 0 .def_67))
(define-fun .def_214 () Int (+ .def_210 .def_175))
(define-fun .def_215 () Int (+ .def_20 .def_214))
(define-fun .def_331 () Bool (= .def_215 (- 1)))
(define-fun .def_176 () Int (* (- 1) .def_26))
(define-fun .def_179 () Int (+ .def_176 .def_175))
(define-fun .def_180 () Int (+ .def_20 .def_179))
(define-fun .def_181 () Bool (<= (- 1) .def_180))
(define-fun .def_182 () Bool (not .def_181))
(define-fun .def_168 () Int (* (- 1) .def_67))
(define-fun .def_169 () Int (+ 1 .def_168))
(define-fun .def_171 () Int (ite .def_170 .def_169 0))
(define-fun .def_172 () Bool (<= .def_24 .def_171))
(define-fun .def_173 () Bool (not .def_172))
(define-fun .def_328 () Bool (and .def_173 .def_182))
(define-fun .def_329 () Bool (not .def_328))
(define-fun .def_219 () Int (* (- 1) .def_153))
(define-fun .def_325 () Int (+ .def_24 .def_219))
(define-fun .def_326 () Bool (= .def_325 1))
(define-fun .def_311 () Bool (= .def_140 0))
(define-fun .def_323 () Bool (or .def_311 .def_322))
(define-fun .def_314 () Bool (<= .def_171 .def_153))
(define-fun .def_315 () Bool (not .def_314))
(define-fun .def_316 () Int (ite .def_315 1 0))
(define-fun .def_317 () Bool (= .def_316 0))
(define-fun .def_318 () Bool (not .def_317))
(define-fun .def_319 () Bool (or .def_311 .def_318))
(define-fun .def_312 () Bool (not .def_311))
(define-fun .def_313 () Bool (and .def_28 .def_312))
(define-fun .def_320 () Bool (and .def_313 .def_319))
(define-fun .def_324 () Bool (and .def_320 .def_323))
(define-fun .def_327 () Bool (and .def_324 .def_326))
(define-fun .def_330 () Bool (and .def_327 .def_329))
(define-fun .def_332 () Bool (and .def_330 .def_331))
(define-fun .def_355 () Bool (or .def_332 .def_354))
(define-fun .def_309 () Bool (and .def_30 .loc.30))
(define-fun .def_35 () Bool (not .loc.29))
(define-fun .def_310 () Bool (and .def_35 .def_309))
(define-fun .def_356 () Bool (and .def_310 .def_355))
(define-fun .def_307 () Bool (= .def_18 .y.24))
(define-fun .def_305 () Bool (= .def_16 .y.23))
(define-fun .def_298 () Bool (= .y.26 0))
(define-fun .def_296 () Bool (= .def_16 .y.25))
(define-fun .def_294 () Bool (= .y.22 .def_22))
(define-fun .def_291 () Bool (and .def_28 .loc.29))
(define-fun .def_37 () Bool (not .loc.30))
(define-fun .def_292 () Bool (and .def_37 .def_291))
(define-fun .def_293 () Bool (and .def_39 .def_292))
(define-fun .def_295 () Bool (and .def_293 .def_294))
(define-fun .def_297 () Bool (and .def_295 .def_296))
(define-fun .def_299 () Bool (and .def_297 .def_298))
(define-fun .def_76 () Bool (= .def_20 0))
(define-fun .def_300 () Bool (and .def_76 .def_299))
(define-fun .def_41 () Bool (= .def_8 .y.18))
(define-fun .def_301 () Bool (and .def_41 .def_300))
(define-fun .def_43 () Bool (= .def_10 .y.19))
(define-fun .def_302 () Bool (and .def_43 .def_301))
(define-fun .def_45 () Bool (= .def_12 .y.20))
(define-fun .def_303 () Bool (and .def_45 .def_302))
(define-fun .def_47 () Bool (= .def_14 .y.21))
(define-fun .def_304 () Bool (and .def_47 .def_303))
(define-fun .def_306 () Bool (and .def_304 .def_305))
(define-fun .def_308 () Bool (and .def_306 .def_307))
(define-fun .def_357 () Bool (or .def_308 .def_356))
(define-fun .def_289 () Bool (= .def_20 .y.24))
(define-fun .def_226 () Bool (<= .def_155 0))
(define-fun .def_227 () Bool (not .def_226))
(define-fun .def_189 () Bool (<= .def_12 0))
(define-fun .def_285 () Bool (or .def_189 .def_227))
(define-fun .def_283 () Bool (not .def_236))
(define-fun .def_279 () Int (+ .def_12 .def_278))
(define-fun .def_280 () Bool (= .def_279 (- 1)))
(define-fun .def_275 () Int (select .def_14 .def_155))
(define-fun .def_276 () Bool (= .y.25 .def_275))
(define-fun .def_271 () Int (* (- 1) .y.26))
(define-fun .def_272 () Int (+ .def_24 .def_271))
(define-fun .def_273 () Bool (= .def_272 (- 1)))
(define-fun .def_264 () Bool (and .def_30 .def_83))
(define-fun .def_265 () Bool (and .loc.29 .def_264))
(define-fun .def_266 () Bool (and .def_37 .def_265))
(define-fun .def_267 () Bool (and .def_41 .def_266))
(define-fun .def_268 () Bool (and .def_43 .def_267))
(define-fun .def_269 () Bool (and .def_45 .def_268))
(define-fun .def_270 () Bool (and .def_47 .def_269))
(define-fun .def_274 () Bool (and .def_270 .def_273))
(define-fun .def_277 () Bool (and .def_274 .def_276))
(define-fun .def_281 () Bool (and .def_277 .def_280))
(define-fun .def_190 () Bool (not .def_189))
(define-fun .def_282 () Bool (and .def_190 .def_281))
(define-fun .def_284 () Bool (and .def_282 .def_283))
(define-fun .def_286 () Bool (and .def_284 .def_285))
(define-fun .def_49 () Bool (= .def_16 .y.22))
(define-fun .def_287 () Bool (and .def_49 .def_286))
(define-fun .def_51 () Bool (= .def_18 .y.23))
(define-fun .def_288 () Bool (and .def_51 .def_287))
(define-fun .def_290 () Bool (and .def_288 .def_289))
(define-fun .def_358 () Bool (or .def_290 .def_357))
(define-fun .def_360 () Bool (and .def_358 .def_359))
(define-fun .def_262 () Bool (= .def_16 .y.27))
(define-fun .def_260 () Bool (= .y.24 0))
(define-fun .def_257 () Bool (= .y.22 .def_18))
(define-fun .def_255 () Bool (= .y.23 .def_20))
(define-fun .def_253 () Bool (<= .def_16 .y.26))
(define-fun .def_250 () Bool (<= .y.26 0))
(define-fun .def_251 () Bool (not .def_250))
(define-fun .def_239 () Bool (and .def_236 .def_238))
(define-fun .def_240 () Bool (and .def_30 .def_239))
(define-fun .def_241 () Bool (and .def_83 .def_240))
(define-fun .def_242 () Bool (and .loc.28 .def_241))
(define-fun .def_243 () Bool (and .loc.29 .def_242))
(define-fun .def_244 () Bool (and .def_37 .def_243))
(define-fun .def_245 () Bool (and .def_41 .def_244))
(define-fun .def_246 () Bool (and .def_43 .def_245))
(define-fun .def_247 () Bool (and .def_45 .def_246))
(define-fun .def_248 () Bool (and .def_47 .def_247))
(define-fun .def_192 () Bool (= .def_24 .y.26))
(define-fun .def_249 () Bool (and .def_192 .def_248))
(define-fun .def_252 () Bool (and .def_249 .def_251))
(define-fun .def_254 () Bool (and .def_252 .def_253))
(define-fun .def_256 () Bool (and .def_254 .def_255))
(define-fun .def_258 () Bool (and .def_256 .def_257))
(define-fun .def_88 () Bool (= .y.25 0))
(define-fun .def_259 () Bool (and .def_88 .def_258))
(define-fun .def_261 () Bool (and .def_259 .def_260))
(define-fun .def_263 () Bool (and .def_261 .def_262))
(define-fun .def_361 () Bool (or .def_263 .def_360))
(define-fun .def_234 () Bool (= .def_26 .y.27))
(define-fun .def_230 () Bool (<= .def_153 0))
(define-fun .def_231 () Bool (not .def_230))
(define-fun .def_232 () Bool (or .def_189 .def_231))
(define-fun .def_54 () Bool (<= .def_8 0))
(define-fun .def_228 () Bool (or .def_54 .def_227))
(define-fun .def_222 () Int (+ .def_219 .def_171))
(define-fun .def_223 () Int (+ .def_12 .def_222))
(define-fun .def_224 () Bool (= .def_223 0))
(define-fun .def_216 () Int (+ .def_8 .def_215))
(define-fun .def_217 () Bool (= .def_216 (- 1)))
(define-fun .def_206 () Int (select .def_10 .def_155))
(define-fun .def_207 () Bool (= .y.23 .def_206))
(define-fun .def_203 () Int (select .def_14 .def_153))
(define-fun .def_204 () Bool (= .y.22 .def_203))
(define-fun .def_201 () Bool (= .y.25 .def_171))
(define-fun .def_194 () Int (* (- 1) .y.24))
(define-fun .def_197 () Int (+ .def_194 .def_175))
(define-fun .def_198 () Int (+ .def_20 .def_197))
(define-fun .def_199 () Bool (= .def_198 (- 1)))
(define-fun .def_165 () Bool (and .def_28 .def_30))
(define-fun .def_166 () Bool (and .loc.28 .def_165))
(define-fun .def_167 () Bool (and .loc.29 .def_166))
(define-fun .def_174 () Bool (and .def_167 .def_173))
(define-fun .def_183 () Bool (and .def_174 .def_182))
(define-fun .def_184 () Bool (and .def_37 .def_183))
(define-fun .def_185 () Bool (and .def_41 .def_184))
(define-fun .def_186 () Bool (and .def_43 .def_185))
(define-fun .def_187 () Bool (and .def_45 .def_186))
(define-fun .def_188 () Bool (and .def_47 .def_187))
(define-fun .def_191 () Bool (and .def_188 .def_190))
(define-fun .def_193 () Bool (and .def_191 .def_192))
(define-fun .def_200 () Bool (and .def_193 .def_199))
(define-fun .def_202 () Bool (and .def_200 .def_201))
(define-fun .def_205 () Bool (and .def_202 .def_204))
(define-fun .def_208 () Bool (and .def_205 .def_207))
(define-fun .def_55 () Bool (not .def_54))
(define-fun .def_209 () Bool (and .def_55 .def_208))
(define-fun .def_218 () Bool (and .def_209 .def_217))
(define-fun .def_225 () Bool (and .def_218 .def_224))
(define-fun .def_229 () Bool (and .def_225 .def_228))
(define-fun .def_233 () Bool (and .def_229 .def_232))
(define-fun .def_235 () Bool (and .def_233 .def_234))
(define-fun .def_362 () Bool (or .def_235 .def_361))
(define-fun .def_150 () Int (+ .y.18 4))
(define-fun .def_152 () Int (+ .y.18 3))
(define-fun .def_154 () Int (+ .y.18 2))
(define-fun .def_156 () Int (+ .y.18 1))
(define-fun .def_158 () (Array Int Int) (store .def_157 .y.18 .y.23))
(define-fun .def_159 () (Array Int Int) (store .def_158 .def_156 .def_155))
(define-fun .def_160 () (Array Int Int) (store .def_159 .def_154 .def_153))
(define-fun .def_161 () (Array Int Int) (store .def_160 .def_152 .def_151))
(define-fun .def_162 () (Array Int Int) (store .def_161 .def_150 0))
(define-fun .def_163 () Bool (= .y.19 .def_162))
(define-fun .def_134 () Int (+ .y.20 4))
(define-fun .def_137 () Int (+ .y.20 3))
(define-fun .def_139 () Int (+ .y.20 2))
(define-fun .def_141 () Int (+ .y.20 1))
(define-fun .def_143 () (Array Int Int) (store .def_142 .y.20 .y.22))
(define-fun .def_144 () (Array Int Int) (store .def_143 .def_141 .def_140))
(define-fun .def_145 () (Array Int Int) (store .def_144 .def_139 .def_62))
(define-fun .def_146 () (Array Int Int) (store .def_145 .def_137 .def_135))
(define-fun .def_147 () (Array Int Int) (store .def_146 .def_134 0))
(define-fun .def_148 () Bool (= .y.21 .def_147))
(define-fun .def_112 () Bool (<= .y.18 0))
(define-fun .def_131 () Bool (not .def_112))
(define-fun .def_92 () Bool (<= .y.20 0))
(define-fun .def_129 () Bool (not .def_92))
(define-fun .def_125 () Bool (<= .y.18 (- 1)))
(define-fun .def_126 () Bool (not .def_125))
(define-fun .def_127 () Bool (or .def_112 .def_126))
(define-fun .def_121 () Bool (<= .y.18 (- 2)))
(define-fun .def_122 () Bool (not .def_121))
(define-fun .def_123 () Bool (or .def_112 .def_122))
(define-fun .def_117 () Bool (<= .y.18 (- 3)))
(define-fun .def_118 () Bool (not .def_117))
(define-fun .def_119 () Bool (or .def_112 .def_118))
(define-fun .def_113 () Bool (<= .y.18 (- 4)))
(define-fun .def_114 () Bool (not .def_113))
(define-fun .def_115 () Bool (or .def_112 .def_114))
(define-fun .def_108 () Bool (<= .y.20 (- 1)))
(define-fun .def_109 () Bool (not .def_108))
(define-fun .def_110 () Bool (or .def_92 .def_109))
(define-fun .def_104 () Bool (<= .y.20 (- 2)))
(define-fun .def_105 () Bool (not .def_104))
(define-fun .def_106 () Bool (or .def_92 .def_105))
(define-fun .def_99 () Bool (<= .y.20 (- 4)))
(define-fun .def_100 () Bool (not .def_99))
(define-fun .def_101 () Bool (or .def_92 .def_100))
(define-fun .def_94 () Bool (<= .y.20 (- 3)))
(define-fun .def_95 () Bool (not .def_94))
(define-fun .def_96 () Bool (or .def_92 .def_95))
(define-fun .def_90 () Bool (= .y.23 .y.24))
(define-fun .def_84 () Bool (and .loc.28 .def_83))
(define-fun .def_85 () Bool (and .def_35 .def_84))
(define-fun .def_86 () Bool (and .def_37 .def_85))
(define-fun .def_87 () Bool (and .def_39 .def_86))
(define-fun .def_89 () Bool (and .def_87 .def_88))
(define-fun .def_91 () Bool (and .def_89 .def_90))
(define-fun .def_97 () Bool (and .def_91 .def_96))
(define-fun .def_102 () Bool (and .def_97 .def_101))
(define-fun .def_107 () Bool (and .def_102 .def_106))
(define-fun .def_111 () Bool (and .def_107 .def_110))
(define-fun .def_116 () Bool (and .def_111 .def_115))
(define-fun .def_120 () Bool (and .def_116 .def_119))
(define-fun .def_124 () Bool (and .def_120 .def_123))
(define-fun .def_128 () Bool (and .def_124 .def_127))
(define-fun .def_130 () Bool (and .def_128 .def_129))
(define-fun .def_132 () Bool (and .def_130 .def_131))
(define-fun .def_149 () Bool (and .def_132 .def_148))
(define-fun .def_164 () Bool (and .def_149 .def_163))
(define-fun .def_363 () Bool (or .def_164 .def_362))
(define-fun .def_79 () Bool (<= .def_62 0))
(define-fun .def_80 () Bool (not .def_79))
(define-fun .def_81 () Bool (or .def_54 .def_80))
(define-fun .def_77 () Bool (not .def_76))
(define-fun .def_71 () Int (* (- 1) .def_62))
(define-fun .def_72 () Int (+ .def_22 .def_71))
(define-fun .def_73 () Int (+ .def_8 .def_72))
(define-fun .def_74 () Bool (= .def_73 (- 1)))
(define-fun .def_63 () Int (select .def_10 .def_62))
(define-fun .def_64 () Bool (= .y.24 .def_63))
(define-fun .def_58 () Int (* (- 1) .y.25))
(define-fun .def_59 () Int (+ .def_22 .def_58))
(define-fun .def_60 () Bool (= .def_59 (- 1)))
(define-fun .def_34 () Bool (and .def_28 .loc.28))
(define-fun .def_36 () Bool (and .def_34 .def_35))
(define-fun .def_38 () Bool (and .def_36 .def_37))
(define-fun .def_40 () Bool (and .def_38 .def_39))
(define-fun .def_42 () Bool (and .def_40 .def_41))
(define-fun .def_44 () Bool (and .def_42 .def_43))
(define-fun .def_46 () Bool (and .def_44 .def_45))
(define-fun .def_48 () Bool (and .def_46 .def_47))
(define-fun .def_50 () Bool (and .def_48 .def_49))
(define-fun .def_52 () Bool (and .def_50 .def_51))
(define-fun .def_56 () Bool (and .def_52 .def_55))
(define-fun .def_61 () Bool (and .def_56 .def_60))
(define-fun .def_65 () Bool (and .def_61 .def_64))
(define-fun .def_75 () Bool (and .def_65 .def_74))
(define-fun .def_78 () Bool (and .def_75 .def_77))
(define-fun .def_82 () Bool (and .def_78 .def_81))
(define-fun .def_364 () Bool (or .def_82 .def_363))
(define-fun .def_366 () Bool (! (and .def_364 .def_365) :trans true))
(define-fun .def_369 () Bool (and .def_32 .def_367))
(define-fun .def_370 () Bool (! (not .def_369) :invar-property 0))
(assert true)
